(set-logic HORN)
(set-info :source |
  Benchmark: test_safe_2019/mochi/map_map.ml
  Generated by MoCHi
|)
(set-info :status unknown)
(declare-fun |fail_13[27:0]| ( Int) Bool)
(declare-fun |map[19:1][22:0]| ( Int  Int) Bool)
(declare-fun |map[19:0]| ( Int) Bool)
(declare-fun |map[12:1][15:0]| ( Int  Int) Bool)
(declare-fun |map[12:0]| ( Int) Bool)
(assert (not (exists ((x0 Int)) (|fail_13[27:0]| x0))))
(assert (forall ((x0 Int)(x3 Int)(x1 Int)(x2 Int)) (=> (and (|map[19:1][22:0]| x2 x3) (and (|map[12:1][15:0]| x1 x2) (not (= x3 x1)))) (|fail_13[27:0]| x0))))
(assert (forall ((x1 Int)(x0 Int)) (=> (and (|map[19:0]| x1) (and (= x1 0) (= x0 x1))) (|map[19:1][22:0]| x1 x0))))
(assert (forall ((x1 Int)(x0 Int)) (=> (|map[12:1][15:0]| x0 x1) (|map[19:0]| x1))))
(assert (forall ((x1 Int)(x0 Int)) (=> (and (|map[12:0]| x1) (and (= x1 0) (= x0 x1))) (|map[12:1][15:0]| x1 x0))))
(assert (forall ((x0 Int)) (|map[12:0]| x0)))
(check-sat)
(get-model)
(exit)
